Solving original (integer) problem with strategy gdp.hull_exact...
--- Job model.gms Start 02/14/26 17:45:33 52.2.0 d8e408be LEX-LEG x86 64bit/Linux
--- Applying:
    /package/gams/52.2/gmsprmun.txt
--- GAMS Parameters defined
    Input /local/scratch/a/sgusev/repos/k_means/data/gams_gurobi_gdp.hull_exact/no_mode/2026-02-14_17-45-33/original/model.gms
    Output /local/scratch/a/sgusev/repos/k_means/data/gams_gurobi_gdp.hull_exact/no_mode/2026-02-14_17-45-33/original/output.lst
    ScrDir /local/scratch/a/sgusev/repos/k_means/data/gams_gurobi_gdp.hull_exact/no_mode/2026-02-14_17-45-33/original/225a/
    SysDir /package/gams/52.2/
    CurDir /local/scratch/a/sgusev/repos/k_means/data/gams_gurobi_gdp.hull_exact/no_mode/2026-02-14_17-45-33/original/
    LogOption 3
    AppendLog 1
Licensee: David Bernal / SECQUOIA Research Group         G251008+0003Ac-GEN
          Purdue University, Davidson School of Chemical EngineeringDCE4838
          225a/gamslice.dat
          5a82958a-fbca-4a23
          node:66820903 mem:995 cores:48 ipport:33745 v:2                  
          Evaluation license: Not for commercial or production use
          The time-limited license stops working on : Jun 30, 2027
System information: 48 physical cores and 995 Gb physical memory detected
GAMS 52.2.0   Copyright (C) 1987-2025 GAMS Development. All rights reserved
--- Starting compilation
--- model.gms(2894) 2 Mb
--- $echo File /local/scratch/a/sgusev/repos/k_means/data/gams_gurobi_gdp.hull_exact/no_mode/2026-02-14_17-45-33/original/gurobi.opt
--- model.gms(4261) 2 Mb
--- Starting execution: elapsed 0:00:00.016
--- model.gms(2903) 3 Mb
--- Generating MINLP model GAMS_MODEL
--- model.gms(2907) 5 Mb
---   875 rows  426 columns  2,129 non-zeroes
---   1,400 nl-code  250 nl-non-zeroes
---   50 discrete-columns
--- Range statistics (absolute non-zero finite values)
--- RHS       [min, max] : [ 1.000E+00, 1.000E+00] - Zero values observed as well
--- Bound     [min, max] : [ 1.000E+00, 6.000E+01] - Zero values observed as well
--- Matrix    [min, max] : [ 1.000E+00, 6.000E+01] - Zero values observed as well
--- model.gms(2907) 3 Mb
--- Executing GUROBI (Solvelink=5): elapsed 0:00:00.022
Reading parameter(s) from "/local/scratch/a/sgusev/repos/k_means/data/gams_gurobi_gdp.hull_exact/no_mode/2026-02-14_17-45-33/original/gurobi.opt"
>>  NonConvex 2
>>  Threads 1
>>  MIPGap 1e-06
>>  MIPGapAbs 1e-10
>>  FeasibilityTol 1e-06
>>  OptimalityTol 1e-06
>>  IntFeasTol 1e-05
Finished reading from "/local/scratch/a/sgusev/repos/k_means/data/gams_gurobi_gdp.hull_exact/no_mode/2026-02-14_17-45-33/original/gurobi.opt"

... GRB_LICENSE_FILE = /local/scratch/a/sgusev/gurobi.lic

    Gurobi           52.2.0 d8e408be Dec 8, 2025           LEG x86 64bit/Linux    

... GAMS/Gurobi Link license.
... GMO Q Extraction (ThreePass): 0.00s

    Gurobi Optimizer version 13.0.0 build v13.0.0rc1 (linux64 - "Oracle Linux Server 9.7")
    
    CPU model: AMD EPYC 7643 48-Core Processor, instruction set [SSE2|AVX|AVX2]
    Thread count: 48 physical cores, 96 logical processors, using up to 1 threads
    
    Non-default parameters:
    TimeLimit  300
    MIPGap  1e-06
    LogToConsole  0
    NonConvex  2
    Threads  1
    
    Optimize a model with 824 rows, 425 columns and 1868 nonzeros (Min)
    Model fingerprint: 0x1a9f1407
    Model has 10 linear objective coefficients
    Model has 50 quadratic constraints
    Variable types: 375 continuous, 50 integer (0 binary)
    Coefficient statistics:
      Matrix range     [1e+00, 6e+01]
      QMatrix range    [9e-02, 2e+00]
      Objective range  [1e+00, 1e+00]
      Bounds range     [1e+00, 6e+01]
      RHS range        [1e+00, 1e+00]
    Presolve removed 150 rows and 160 columns
    Presolve time: 0.01s
    Presolved: 1034 rows, 615 columns, 2818 nonzeros
    Presolved model has 150 quadratic constraint(s)
    Variable types: 565 continuous, 50 integer (50 binary)
    
    Root relaxation: objective 0.000000e+00, 244 iterations, 0.00 seconds (0.00 work units)
    
        Nodes    |    Current Node    |     Objective Bounds      |     Work
     Expl Unexpl |  Obj  Depth IntInf | Incumbent    BestBd   Gap | It/Node Time
    
    H    0     0                       5.5291466    0.00000   100%     -    0s
    *    0     0               0       5.5291466    0.00000   100%     -    0s
         0     0    0.00000    0   12    5.52915    0.00000   100%     -    0s
         0     0    0.00000    0   12    5.52915    0.00000   100%     -    0s
    H    0     0                       3.4174984    0.00000   100%     -    0s
         0     0    0.00000    0   12    3.41750    0.00000   100%     -    0s
         0     0    0.00000    0   12    3.41750    0.00000   100%     -    0s
         0     0    0.00000    0    4    3.41750    0.00000   100%     -    0s
         0     0    0.00000    0    6    3.41750    0.00000   100%     -    0s
         0     0    0.00000    0   12    3.41750    0.00000   100%     -    0s
         0     0    0.00000    0    4    3.41750    0.00000   100%     -    0s
         0     0    0.00000    0   14    3.41750    0.00000   100%     -    0s
         0     0    0.00000    0    4    3.41750    0.00000   100%     -    0s
         0     0    0.00000    0   12    3.41750    0.00000   100%     -    0s
         0     0    0.00000    0   12    3.41750    0.00000   100%     -    0s
         0     0    0.00000    0    8    3.41750    0.00000   100%     -    0s
         0     0    0.00000    0   10    3.41750    0.00000   100%     -    0s
         0     0    0.00000    0   10    3.41750    0.00000   100%     -    0s
         0     0    0.00000    0   10    3.41750    0.00000   100%     -    0s
         0     0    0.00000    0    8    3.41750    0.00000   100%     -    0s
         0     0    0.00000    0   10    3.41750    0.00000   100%     -    0s
         0     0    0.00000    0   10    3.41750    0.00000   100%     -    0s
         0     0    0.00000    0   12    3.41750    0.00000   100%     -    0s
         0     0    0.00000    0   12    3.41750    0.00000   100%     -    0s
         0     0    0.00000    0   12    3.41750    0.00000   100%     -    0s
         0     0    0.00000    0   12    3.41750    0.00000   100%     -    0s
         0     0    0.00000    0   14    3.41750    0.00000   100%     -    0s
         0     0    0.00000    0    6    3.41750    0.00000   100%     -    0s
         0     0    0.00000    0    7    3.41750    0.00000   100%     -    0s
         0     0    0.00000    0   10    3.41750    0.00000   100%     -    0s
         0     0    0.00000    0   10    3.41750    0.00000   100%     -    0s
         0     0    0.00000    0    8    3.41750    0.00000   100%     -    0s
         0     0    0.00000    0   17    3.41750    0.00000   100%     -    0s
         0     0    0.00000    0    6    3.41750    0.00000   100%     -    0s
         0     0    0.00000    0   12    3.41750    0.00000   100%     -    0s
         0     0    0.00000    0   10    3.41750    0.00000   100%     -    0s
         0     0    0.00000    0   10    3.41750    0.00000   100%     -    0s
         0     0    0.00000    0   10    3.41750    0.00000   100%     -    0s
         0     0    0.00000    0   12    3.41750    0.00000   100%     -    0s
         0     0    0.00000    0    6    3.41750    0.00000   100%     -    0s
         0     0    0.00000    0   19    3.41750    0.00000   100%     -    0s
         0     0    0.00000    0    6    3.41750    0.00000   100%     -    0s
         0     0    0.00000    0    7    3.41750    0.00000   100%     -    0s
         0     0    0.00000    0   10    3.41750    0.00000   100%     -    0s
         0     0    0.00000    0   10    3.41750    0.00000   100%     -    0s
         0     0    0.00000    0   16    3.41750    0.00000   100%     -    0s
         0     0    0.00000    0   12    3.41750    0.00000   100%     -    0s
         0     0    0.00000    0   14    3.41750    0.00000   100%     -    0s
         0     0    0.00000    0    6    3.41750    0.00000   100%     -    0s
         0     0    0.00000    0   10    3.41750    0.00000   100%     -    0s
         0     0    0.00000    0   10    3.41750    0.00000   100%     -    0s
         0     0    0.00000    0   12    3.41750    0.00000   100%     -    0s
         0     0    0.00000    0   12    3.41750    0.00000   100%     -    0s
         0     0    0.00000    0   14    3.41750    0.00000   100%     -    0s
         0     0    0.00000    0   14    3.41750    0.00000   100%     -    0s
         0     0    0.00000    0   18    3.41750    0.00000   100%     -    0s
         0     0    0.00000    0    8    3.41750    0.00000   100%     -    0s
         0     0    0.00000    0    8    3.41750    0.00000   100%     -    0s
         0     0    0.00000    0   13    3.41750    0.00000   100%     -    0s
         0     0    0.00000    0   12    3.41750    0.00000   100%     -    0s
         0     0    0.00000    0   18    3.41750    0.00000   100%     -    0s
         0     0    0.00000    0    8    3.41750    0.00000   100%     -    0s
         0     0    0.00000    0   16    3.41750    0.00000   100%     -    0s
         0     0    0.00000    0   10    3.41750    0.00000   100%     -    0s
         0     0    0.00000    0   12    3.41750    0.00000   100%     -    0s
         0     0    0.00000    0   10    3.41750    0.00000   100%     -    0s
         0     0    0.00000    0   14    3.41750    0.00000   100%     -    0s
         0     0    0.00000    0    6    3.41750    0.00000   100%     -    0s
         0     0    0.00000    0   17    3.41750    0.00000   100%     -    0s
         0     0    0.00000    0   10    3.41750    0.00000   100%     -    0s
         0     0    0.00000    0   10    3.41750    0.00000   100%     -    0s
         0     0    0.00000    0   10    3.41750    0.00000   100%     -    0s
         0     0    0.00000    0   12    3.41750    0.00000   100%     -    0s
         0     0    0.00000    0   12    3.41750    0.00000   100%     -    0s
         0     0    0.00000    0   12    3.41750    0.00000   100%     -    0s
         0     0    0.00000    0   12    3.41750    0.00000   100%     -    0s
         0     0    0.00000    0   14    3.41750    0.00000   100%     -    0s
         0     0    0.00000    0   14    3.41750    0.00000   100%     -    0s
         0     0    0.00000    0   12    3.41750    0.00000   100%     -    0s
         0     0    0.00000    0    9    3.41750    0.00000   100%     -    0s
         0     0    0.00000    0    8    3.41750    0.00000   100%     -    0s
         0     0    0.00000    0   10    3.41750    0.00000   100%     -    0s
         0     0    0.00000    0   10    3.41750    0.00000   100%     -    0s
         0     0    0.00000    0    8    3.41750    0.00000   100%     -    0s
         0     0    0.00000    0   10    3.41750    0.00000   100%     -    0s
         0     0    0.00000    0    8    3.41750    0.00000   100%     -    0s
         0     0    0.00000    0    6    3.41750    0.00000   100%     -    0s
         0     0    0.00000    0    8    3.41750    0.00000   100%     -    0s
         0     0    0.00000    0    8    3.41750    0.00000   100%     -    0s
         0     0    0.00000    0   10    3.41750    0.00000   100%     -    0s
         0     0    0.00000    0   10    3.41750    0.00000   100%     -    0s
         0     0    0.00000    0   10    3.41750    0.00000   100%     -    0s
         0     0    0.00000    0   10    3.41750    0.00000   100%     -    0s
         0     0    0.00000    0   10    3.41750    0.00000   100%     -    0s
         0     0    0.00000    0   10    3.41750    0.00000   100%     -    0s
         0     0    0.00000    0   10    3.41750    0.00000   100%     -    0s
         0     0    0.00000    0    8    3.41750    0.00000   100%     -    0s
         0     0    0.00000    0    8    3.41750    0.00000   100%     -    0s
         0     0    0.00000    0    8    3.41750    0.00000   100%     -    0s
         0     0    0.00000    0    8    3.41750    0.00000   100%     -    0s
         0     0    0.00000    0    8    3.41750    0.00000   100%     -    0s
         0     0    0.00000    0   10    3.41750    0.00000   100%     -    0s
         0     0    0.00000    0    8    3.41750    0.00000   100%     -    0s
         0     0    0.00000    0   14    3.41750    0.00000   100%     -    0s
         0     0    0.00000    0    4    3.41750    0.00000   100%     -    0s
         0     0    0.00000    0    6    3.41750    0.00000   100%     -    0s
         0     0    0.00000    0    8    3.41750    0.00000   100%     -    0s
         0     0    0.00000    0   10    3.41750    0.00000   100%     -    0s
         0     0    0.00000    0    6    3.41750    0.00000   100%     -    0s
         0     0    0.00000    0    8    3.41750    0.00000   100%     -    0s
         0     0    0.00000    0    8    3.41750    0.00000   100%     -    0s
         0     0    0.00000    0    8    3.41750    0.00000   100%     -    0s
         0     0    0.00000    0   10    3.41750    0.00000   100%     -    0s
         0     0    0.00000    0   10    3.41750    0.00000   100%     -    0s
         0     0    0.00000    0   10    3.41750    0.00000   100%     -    0s
         0     0    0.00000    0    8    3.41750    0.00000   100%     -    0s
         0     0    0.00000    0    8    3.41750    0.00000   100%     -    0s
         0     0    0.00000    0   10    3.41750    0.00000   100%     -    0s
         0     0    0.00000    0   10    3.41750    0.00000   100%     -    0s
         0     0    0.00000    0   10    3.41750    0.00000   100%     -    0s
         0     0    0.00000    0   10    3.41750    0.00000   100%     -    0s
         0     0    0.00000    0   12    3.41750    0.00000   100%     -    0s
         0     0    0.00000    0   12    3.41750    0.00000   100%     -    0s
         0     0    0.00000    0   10    3.41750    0.00000   100%     -    0s
         0     0    0.00000    0   10    3.41750    0.00000   100%     -    0s
         0     0    0.00000    0   12    3.41750    0.00000   100%     -    0s
         0     0    0.00000    0   12    3.41750    0.00000   100%     -    0s
         0     0    0.00000    0   12    3.41750    0.00000   100%     -    0s
         0     0    0.00000    0    9    3.41750    0.00000   100%     -    0s
         0     0    0.00000    0   11    3.41750    0.00000   100%     -    0s
         0     0    0.00000    0    6    3.41750    0.00000   100%     -    0s
         0     0    0.00000    0   12    3.41750    0.00000   100%     -    0s
         0     0    0.00000    0   10    3.41750    0.00000   100%     -    0s
         0     0    0.00000    0    8    3.41750    0.00000   100%     -    0s
         0     0    0.00000    0   13    3.41750    0.00000   100%     -    0s
         0     0    0.00000    0   12    3.41750    0.00000   100%     -    0s
         0     0    0.00000    0   12    3.41750    0.00000   100%     -    0s
         0     0    0.00000    0   12    3.41750    0.00000   100%     -    0s
         0     0    0.00000    0   12    3.41750    0.00000   100%     -    0s
         0     0    0.00000    0    7    3.41750    0.00000   100%     -    0s
         0     0    0.00000    0    8    3.41750    0.00000   100%     -    0s
         0     0    0.00000    0    8    3.41750    0.00000   100%     -    0s
         0     0    0.00000    0   12    3.41750    0.00000   100%     -    0s
         0     0    0.00000    0   10    3.41750    0.00000   100%     -    0s
         0     0    0.00000    0    8    3.41750    0.00000   100%     -    0s
         0     0    0.00000    0   10    3.41750    0.00000   100%     -    0s
         0     0    0.00000    0   10    3.41750    0.00000   100%     -    0s
         0     0    0.00000    0   10    3.41750    0.00000   100%     -    0s
         0     0    0.00000    0    8    3.41750    0.00000   100%     -    0s
         0     0    0.00000    0   10    3.41750    0.00000   100%     -    0s
         0     0    0.00000    0   10    3.41750    0.00000   100%     -    0s
         0     0    0.00000    0   12    3.41750    0.00000   100%     -    0s
         0     0    0.00000    0   12    3.41750    0.00000   100%     -    0s
         0     0    0.00000    0   11    3.41750    0.00000   100%     -    0s
         0     0    0.00000    0   11    3.41750    0.00000   100%     -    0s
         0     0    0.00000    0   12    3.41750    0.00000   100%     -    0s
         0     0    0.00000    0   12    3.41750    0.00000   100%     -    0s
         0     0    0.00000    0   14    3.41750    0.00000   100%     -    0s
         0     0    0.00000    0    6    3.41750    0.00000   100%     -    0s
         0     0    0.00000    0   11    3.41750    0.00000   100%     -    0s
         0     0    0.00000    0   10    3.41750    0.00000   100%     -    0s
         0     0    0.00000    0   12    3.41750    0.00000   100%     -    0s
         0     0    0.00000    0   12    3.41750    0.00000   100%     -    0s
         0     0    0.00000    0    6    3.41750    0.00000   100%     -    0s
         0     0    0.00000    0    8    3.41750    0.00000   100%     -    0s
         0     0    0.00000    0   10    3.41750    0.00000   100%     -    0s
         0     0    0.00000    0    8    3.41750    0.00000   100%     -    0s
         0     0    0.00000    0    8    3.41750    0.00000   100%     -    0s
         0     0    0.00000    0   10    3.41750    0.00000   100%     -    0s
         0     0    0.00000    0    4    3.41750    0.00000   100%     -    0s
         0     0    0.00000    0    8    3.41750    0.00000   100%     -    0s
         0     0    0.00000    0    8    3.41750    0.00000   100%     -    0s
         0     0    0.00000    0   10    3.41750    0.00000   100%     -    0s
         0     0    0.00000    0    8    3.41750    0.00000   100%     -    0s
         0     0    0.00000    0    8    3.41750    0.00000   100%     -    0s
    H    0     0                       2.8509464    0.00000   100%     -    0s
    H    0     0                       2.8509464    0.00000   100%     -    0s
         0     2    0.00000    0    8    2.85095    0.00000   100%     -    0s
    H    8     8                       2.6704040    0.00000   100%  75.6    0s
    H   13    13                       2.6704034    0.00000   100%  88.9    0s
    H   13    13                       2.6704033    0.00000   100%  88.9    0s
    H   19    19                       2.3649770    0.00000   100%  95.3    0s
    H   24    24                       2.3649770    0.00000   100%   107    0s
    H   70    57                       2.3649770    0.00000   100%  81.3    1s
    H   70    52                       1.9399092    0.00000   100%  81.3    1s
    H   83    63                       1.9278172    0.00000   100%  75.9    1s
    H  143    83                       1.8704056    0.00000   100%  66.5    1s
    H  162    93                       1.8704046    0.00000   100%  62.7    1s
    H  162    93                       1.8527087    0.00000   100%  62.7    1s
    H  203   114                       1.8526795    0.00000   100%  67.4    1s
    H  209   120                       1.8526793    0.00000   100%  69.1    1s
    H  216   125                       1.8473259    0.00000   100%  70.7    1s
    H  222   131                       1.8473257    0.00000   100%  72.8    1s
    H  228   135                       1.8473255    0.00000   100%  74.7    1s
    H  247   140                       1.8473255    0.00000   100%  72.8    1s
    H  247   140                       1.8473251    0.00000   100%  72.8    1s
    H  390   210                       1.8473250    0.00000   100%  97.3    3s
    H  404   208                       1.8473249    0.00000   100%   101    3s
    H  406   199                       1.4914079    0.00000   100%   101    3s
    H  408   190                       1.4914079    0.00000   100%   101    3s
    H  411   181                       1.4914078    0.00000   100%   102    3s
    H  413   172                       1.4914078    0.00000   100%   103    3s
    H  446   163                       1.4914077    0.00000   100%   103    4s
       647   216    0.00462   26   21    1.49141    0.00000   100%   113    5s
    H  745   215                       1.4763683    0.00000   100%   111    5s
    H  747   204                       1.4763682    0.00000   100%   111    5s
    H  747   197                       1.4763681    0.00000   100%   111    5s
    H  756   199                       1.4763681    0.00000   100%   112    5s
    H 1122   378                       1.4763681    0.00000   100%   122    6s
      1859   643    0.06044   23   29    1.47637    0.00000   100%   128   10s
    H 3499   937                       1.4460554    0.19680  86.4%   122   14s
      3765   975    0.49298   33   17    1.44606    0.23414  83.8%   120   15s
    H 4491  1029                       1.3884662    0.30908  77.7%   117   16s
    H 4712   980                       1.2789020    0.32725  74.4%   115   16s
      6535   729    0.74410   24   21    1.27890    0.70369  45.0%   104   20s
    
    Cutting planes:
      Gomory: 1
      Implied bound: 1
      MIR: 1
      Flow cover: 8
      Relax-and-lift: 1
    
    Explored 8285 nodes (819429 simplex iterations) in 22.76 seconds (22.91 work units)
    Thread count was 1 (of 96 available processors)
    
    Solution count 10: 1.2789 1.2789 1.38847 ... 2.6704
    No other solutions better than 1.2789
    
    Optimal solution found (tolerance 1.00e-06)
    Best objective 1.278901956056e+00, best bound 1.278901956056e+00, gap 0.0000%
    
    User-callback calls 8423, time in user-callback 0.00 sec

... Solving fixed model...

    Gurobi Optimizer version 13.0.0 build v13.0.0rc1 (linux64 - "Oracle Linux Server 9.7")
    
    CPU model: AMD EPYC 7643 48-Core Processor, instruction set [SSE2|AVX|AVX2]
    Thread count: 48 physical cores, 96 logical processors, using up to 1 threads
    
    Non-default parameters:
    TimeLimit  300
    MIPGap  1e-06
    LogToConsole  0
    NonConvex  2
    Threads  1
    
    Optimize a model with 824 rows, 425 columns and 1868 nonzeros (Min)
    Model fingerprint: 0x6e73e92b
    Model has 10 linear objective coefficients
    Model has 50 quadratic constraints
    Coefficient statistics:
      Matrix range     [1e+00, 6e+01]
      QMatrix range    [9e-02, 2e+00]
      Objective range  [1e+00, 1e+00]
      Bounds range     [1e+00, 6e+01]
      RHS range        [1e+00, 1e+00]
    Presolve removed 820 rows and 404 columns
    Presolve time: 0.00s
    Presolved: 47 rows, 56 columns, 112 nonzeros
    Presolved model has 10 second-order cone constraints
    Ordering time: 0.00s
    
    Barrier statistics:
     AA' NZ     : 2.590e+02
     Factor NZ  : 3.690e+02
     Factor Ops : 3.695e+03 (less than 1 second per iteration)
     Threads    : 1
    
                      Objective                Residual
    Iter       Primal          Dual         Primal    Dual     Compl     Time
       0   4.09179833e+02 -2.00489995e+02  1.50e+01 2.51e+00  1.23e+01     0s
       1   4.44139104e+01 -4.15038081e+01  1.65e-05 2.76e-06  9.88e-01     0s
       2   2.47494309e+00 -4.50151952e+00  5.71e-07 2.98e-07  8.02e-02     0s
       3   1.70255532e+00  1.21093011e-01  4.47e-09 3.38e-08  1.82e-02     0s
       4   1.36272264e+00  1.20229062e+00  1.71e-14 7.21e-10  1.84e-03     0s
       5   1.28967391e+00  1.26865094e+00  1.11e-12 3.73e-11  2.42e-04     0s
       6   1.27925996e+00  1.27817036e+00  1.54e-12 3.07e-12  1.25e-05     0s
       7   1.27901460e+00  1.27877411e+00  1.04e-10 5.64e-13  2.76e-06     0s
       8   1.27892961e+00  1.27885819e+00  6.57e-10 9.25e-13  8.21e-07     0s
       9   1.27890199e+00  1.27890106e+00  5.87e-10 3.18e-12  1.08e-08     0s
    
    Barrier solved model in 9 iterations and 0.00 seconds (0.00 work units)
    Optimal objective 1.27890199e+00
    
    
    User-callback calls 0, time in user-callback 0.00 sec
    Warning: to get QCP duals, please set parameter QCPDual to 1

--- Reading solution for model GAMS_MODEL
***
*** Solver did not provide marginals for model GAMS_MODEL
***
--- Executing after solve: elapsed 0:00:22.812
--- model.gms(2910) 3 Mb
--- model.gms(4261) 5 Mb
--- Putfile results /local/scratch/a/sgusev/repos/k_means/data/gams_gurobi_gdp.hull_exact/no_mode/2026-02-14_17-45-33/original/results.dat
--- Putfile statresults /local/scratch/a/sgusev/repos/k_means/data/gams_gurobi_gdp.hull_exact/no_mode/2026-02-14_17-45-33/original/resultsstat.dat
*** Status: Normal completion
--- Job model.gms Stop 02/14/26 17:45:56 elapsed 0:00:22.816
Original problem solved. Time taken: 23.41530466079712 seconds
Original objective value: 1.278901994819857
